
        $ From http://www.csplib.org/Problems/prob009/data/helmut.pdf
        $ Problem number 11
        $ Sequence length : 23
        language ESSENCE' 1.0
        letting sizemaster be 139
        letting sizes be sequence(1,2,7,8,12,13,14,15,16,18,19,20,21,22,24,26,27,28,32,33,38,59,80)
        